%chk=h2o_dipole.chk
#p uhf geom=modela output=(mat,AO2ElectronIntegrals) int=noraff 

h2o dipole check

0 1
o h h

h2o_dipole.mat
